100
[20,21,22,23,24,25,26,27,28,29,30,31,32,33,34,35,36,37,38,39,40,41,42,43,44,45,46,47,48,49,50,51,52,53,54,55,56,57,58,59,60,61,62,63,64,65,66,67,68,69,70,71,72,73,74,75,76,77,78,79,80]
[18,22,18,16,22,22,10,9,17,23,12,24,18,18,19,11,20,14,9,18,21,16,16,20,16,20,15,14,15,21,19,17,6,18,16,15,13,13,19,12,19,14,21,20,10,21,17,19,15,13,16,14,19,13,17,18,13,10,16,16,17]
